set D :=
 d1AM
 d1PM
 d2AM
;

set S_[d1AM] := 1 2; 
set S_[d1PM] := 3 4; 
set S_[d2AM] := 5 6; 

set S :=
 1
 2
 3
 4
 5
 6
;

set R :=
 4101 
 4102 
 4103 
;

set A[1] := 1 2 3 4 5 6 7 8;
set A[2] := 1 2 3 4 5 6 7 8;
set A[3] := 1 2 3 4 5 6 7 8;
set A[4] := 1 2 3 4 5 6 7 8;
set A[5] := 1 2 3 4 5 6 7 8;
set A[6] := 1 2 3 4 5 6 7 8;


set L :=
 1 
 2 
 3 
 4 
 5 
 6 
 7 
 8 
 9 
 10 
 11 
 12 
 13 
 14 
 15 
 16 
 17 
 18 
 19 
 20 
 21 
;

set O :=
;

set I :=
13-6
13-29
13-42
13-48
13-87
12-20
13-5
13-20
13-35
13-78
13-108
12-63
13-36
13-43
13-55
13-62
13-66
12-23
12-31
13-8
13-12
13-64
13-82
13-93
12-22
13-13
13-16
13-88
13-110
13-118
12-26
13-14
13-109
12-76
13-28
13-117
13-38
13-3
13-54
13-68
13-105
13-115
12-80
13-26
13-40
13-58
13-96
12-110
13-7
13-25
13-70
13-79
13-86
12-52
11-88
13-44
13-69
13-80
13-106
13-46
13-75
13-98
13-123
12-108
12-147
13-77
13-99
13-103
13-119
12-27
12-106
13-24
13-83
13-107
13-116
12-130
13-10
13-47
13-51
13-100
12-56
13-4
13-53
13-57
13-61
13-73
12-12
13-9
13-31
13-60
12-62
13-59
10-52
13-21
13-76
13-122
13-65
13-11
10-49
13-84
13-39
13-23
13-45
13-85
13-94
13-113
12-102
13-19
13-32
13-91
13-92
13-102
12-16
12-99
13-1
13-27
13-37
13-89
13-72
13-33
13-15
13-101
9-59
13-120
;
set C :=
;

param u :=
1 8
2 6
3 8
4 6
5 8
6 6
;

param j :=
 3 13-6 0
 4 13-6 0
 1 13-78 0
 2 13-78 0
 3 13-108 0
 4 13-108 0
 1 12-23 0
 2 12-23 0
 1 13-13 0
 2 13-13 0
 3 13-13 0
 4 13-13 0
 1 13-70 0
 2 13-70 0
 1 13-77 0
 2 13-77 0
 1 13-99 0
 2 13-99 0
 1 13-103 0
 2 13-103 0
 1 13-119 0
 2 13-119 0
 1 12-27 0
 2 12-27 0
 1 12-106 0
 2 12-106 0
 1 13-10 0
 2 13-10 0
 1 13-72 0
 2 13-72 0
 3 13-72 0
 4 13-72 0
 1 13-33 0
 2 13-33 0
 3 13-33 0
 4 13-33 0
 3 13-15 0
 4 13-15 0
 3 13-101 0
 4 13-101 0
 1 9-59 0
 2 9-59 0
 1 13-120 0
 2 13-120 0
;
param j_ :=
 3 3 0
 1 12 0
 2 12 0
 4 21 0
;

param b :=
1 13-6 1
1 13-29 1
1 13-42 1
1 13-48 1
1 13-87 1
1 12-20 1
2 13-5 1
2 13-20 1
2 13-35 1
2 13-78 1
2 13-108 1
2 12-63 1
3 13-36 1
3 13-43 1
3 13-55 1
3 13-62 1
3 13-66 1
3 12-23 1
3 12-31 1
4 13-8 1
4 13-12 1
4 13-64 1
4 13-82 1
4 13-93 1
4 12-22 1
5 13-13 1
5 13-16 1
5 13-88 1
5 13-110 1
5 13-118 1
5 12-26 1
6 13-14 1
6 13-109 1
6 12-76 1
6 13-28 1
6 13-117 1
6 13-38 1
7 13-3 1
7 13-54 1
7 13-68 1
7 13-105 1
7 13-115 1
7 12-80 1
8 13-26 1
8 13-40 1
8 13-58 1
8 13-96 1
8 12-110 1
9 13-7 1
9 13-25 1
9 13-70 1
9 13-79 1
9 13-86 1
9 12-52 1
10 11-88 1
10 13-44 1
10 13-69 1
10 13-80 1
10 13-106 1
11 13-46 1
11 13-75 1
11 13-98 1
11 13-123 1
11 12-108 1
11 12-147 1
12 13-77 1
12 13-99 1
12 13-103 1
12 13-119 1
12 12-27 1
12 12-106 1
13 13-24 1
13 13-83 1
13 13-107 1
13 13-116 1
13 12-130 1
14 13-10 1
14 13-47 1
14 13-51 1
14 13-100 1
14 12-56 1
15 13-4 1
15 13-53 1
15 13-57 1
15 13-61 1
15 13-73 1
15 12-12 1
16 13-9 1
16 13-31 1
16 13-60 1
16 12-62 1
16 13-59 1
17 10-52 1
17 13-21 1
17 13-76 1
17 13-122 1
17 13-65 1
17 13-11 1
17 10-49 1
17 13-84 1
17 13-39 1
18 13-23 1
18 13-45 1
18 13-85 1
18 13-94 1
18 13-113 1
18 12-102 1
19 13-19 1
19 13-32 1
19 13-91 1
19 13-92 1
19 13-102 1
19 12-16 1
19 12-99 1
20 13-1 1
20 13-27 1
20 13-37 1
20 13-89 1
21 13-72 1
21 13-33 1
21 13-15 1
21 13-101 1
21 9-59 1
21 13-120 1
;

set G :=
(1,17)
;


end;
